Traveling Salesman Problem/TSP_generados/Aleatorio1621103271_7.tsp
NAME: Aleatorio1621103271_7.tsp
COMMENT: Randomly generated scenario
TYPE: TSP
DIMENSION: 7
EDGE_WEIGHT_TYPE: ATT
NODE_COORD_SECTION
1 11.52 10.28
2 21.87 31.06
3 35.75 19.96
4 38.6 31.15
5 10.86 33.66
6 17.36 45.97
7 20.98 13.01
