Traveling Salesman Problem/TSP_generados/Aleatorio1621103271_7.opt.tour
NAME: Aleatorio1621103271_7.opt.tour
COMMENT: Optimal solution for Aleatorio1621103271_7 (107.33416755601195)
TYPE: TOUR
DIMENSION: 7
TOUR_SECTION
1 5 6 2 4 3 7
-1
EOF
